c description: Random 3-CNF over 18 variables and 77 clauses
c generator: CNFgen (0.9.2)
c copyright: (C) 2012-2022 Massimo Lauria <massimo.lauria@uniroma1.it>
c url: https://massimolauria.net/cnfgen
c command line: cnfgen --output CNF_4.28/18_bit_77_967.cnf randkcnf 3 18 77
c
p cnf 18 77
7 11 15 0
1 -13 14 0
2 3 17 0
-2 10 -17 0
-3 -7 -14 0
4 -5 -13 0
2 -16 18 0
1 10 18 0
12 16 -18 0
4 -8 -13 0
2 -14 -18 0
-2 4 17 0
-8 17 18 0
5 -6 16 0
2 8 10 0
-3 -7 14 0
5 -8 12 0
1 -13 -15 0
-4 5 8 0
-1 3 -13 0
8 9 15 0
-5 6 -12 0
7 -11 13 0
2 -6 -9 0
2 3 -5 0
2 4 -12 0
-2 4 15 0
1 8 -17 0
-2 -6 16 0
-1 -10 18 0
-3 11 12 0
1 -10 11 0
-7 -9 13 0
3 5 -11 0
-3 -8 9 0
5 6 10 0
-3 8 -9 0
3 -15 -18 0
-2 5 6 0
-1 9 -18 0
-6 7 -14 0
1 11 -16 0
-2 -6 -9 0
6 -8 -11 0
5 -10 -16 0
-2 4 6 0
4 -5 12 0
-9 -12 15 0
-6 12 -13 0
2 11 -13 0
-2 -10 -16 0
-4 -10 11 0
3 6 -10 0
-1 5 15 0
7 8 -14 0
1 16 18 0
-4 -5 -9 0
13 -14 18 0
3 8 -16 0
4 -14 18 0
-5 -6 -12 0
3 8 18 0
-9 -11 13 0
-9 11 -17 0
6 -12 -15 0
2 12 -17 0
12 -13 -18 0
-5 8 12 0
9 -11 18 0
-6 15 17 0
-3 -5 -9 0
12 -15 17 0
-8 12 14 0
-15 -16 -18 0
-11 13 16 0
3 -6 -10 0
1 -7 9 0
